15 2 
5256	5256	
508	206	411	
523	9	11	
287	634	959	
791	295	414	
776	728	1097	
696	464	527	
785	140	210	
766	493	833	
944	612	917	
763	227	445	
904	522	726	
24	800	891	
610	797	1312	
625	314	473	
506	767	1076	
